c Created with the Wolfram Language : www.wolfram.com
c 
p edge 90 406
e 1 2
e 1 3
e 1 5
e 2 5
e 1 7
e 5 7
e 1 10
e 5 10
e 1 12
e 4 14
e 2 15
e 11 16
e 6 17
e 10 17
e 16 18
e 9 19
e 15 19
e 5 21
e 11 21
e 16 21
e 12 22
e 6 23
e 1 24
e 14 24
e 19 24
e 17 25
e 23 25
e 1 26
e 16 26
e 17 26
e 1 27
e 4 27
e 5 27
e 13 27
e 24 27
e 2 29
e 2 30
e 23 30
e 2 31
e 5 31
e 14 31
e 10 32
e 17 32
e 25 32
e 30 32
e 23 33
e 4 34
e 8 34
e 15 34
e 21 34
e 30 34
e 31 34
e 32 34
e 8 35
e 17 35
e 21 35
e 25 35
e 14 36
e 20 36
e 22 36
e 26 36
e 27 36
e 20 37
e 11 38
e 14 38
e 30 38
e 11 39
e 22 39
e 27 39
e 31 39
e 6 40
e 8 40
e 11 40
e 21 40
e 22 40
e 20 41
e 24 41
e 14 42
e 24 42
e 26 42
e 41 42
e 4 43
e 14 43
e 20 43
e 22 43
e 2 44
e 5 44
e 11 44
e 19 44
e 34 44
e 7 45
e 13 45
e 28 45
e 44 45
e 13 46
e 20 46
e 26 46
e 1 47
e 6 47
e 15 47
e 22 47
e 41 47
e 30 48
e 43 48
e 17 49
e 22 49
e 31 49
e 42 49
e 6 50
e 10 50
e 5 51
e 11 51
e 12 51
e 22 51
e 26 51
e 32 51
e 35 51
e 42 51
e 46 51
e 50 51
e 18 52
e 39 52
e 40 52
e 47 52
e 48 52
e 4 53
e 30 53
e 45 53
e 3 54
e 5 54
e 10 54
e 15 54
e 38 54
e 48 54
e 24 55
e 37 55
e 44 55
e 27 56
e 29 56
e 36 56
e 37 56
e 47 56
e 2 57
e 3 57
e 15 57
e 23 57
e 18 58
e 21 58
e 53 58
e 4 59
e 11 59
e 12 59
e 17 59
e 18 59
e 19 59
e 21 59
e 34 59
e 39 59
e 40 59
e 42 59
e 4 60
e 5 60
e 11 60
e 17 60
e 19 60
e 38 60
e 44 60
e 47 60
e 18 61
e 33 61
e 36 61
e 43 61
e 47 61
e 48 61
e 50 61
e 52 61
e 4 62
e 10 62
e 14 62
e 15 62
e 48 62
e 49 62
e 55 62
e 4 63
e 10 63
e 26 63
e 38 63
e 42 63
e 46 63
e 56 63
e 1 64
e 19 64
e 21 64
e 22 64
e 40 64
e 58 64
e 63 64
e 4 65
e 6 65
e 29 65
e 33 65
e 39 65
e 40 65
e 42 65
e 63 65
e 1 66
e 8 66
e 14 66
e 32 66
e 40 66
e 65 66
e 2 67
e 5 67
e 10 67
e 15 67
e 36 67
e 41 67
e 58 67
e 61 67
e 14 68
e 16 68
e 21 68
e 24 68
e 27 68
e 32 68
e 42 68
e 47 68
e 49 68
e 58 68
e 59 68
e 1 69
e 5 69
e 17 69
e 23 69
e 25 69
e 30 69
e 34 69
e 37 69
e 48 69
e 67 69
e 3 70
e 19 70
e 26 70
e 30 70
e 39 70
e 49 70
e 59 70
e 62 70
e 19 71
e 20 71
e 28 71
e 39 71
e 44 71
e 46 71
e 49 71
e 51 71
e 13 72
e 20 72
e 24 72
e 32 72
e 3 73
e 17 73
e 29 73
e 33 73
e 34 73
e 69 73
e 5 74
e 15 74
e 20 74
e 22 74
e 23 74
e 36 74
e 37 74
e 45 74
e 50 74
e 63 74
e 42 75
e 46 75
e 66 75
e 71 75
e 62 76
e 63 76
e 74 76
e 1 77
e 16 77
e 32 77
e 39 77
e 43 77
e 48 77
e 51 77
e 52 77
e 55 77
e 56 77
e 58 77
e 64 77
e 68 77
e 24 78
e 29 78
e 48 78
e 52 78
e 70 78
e 1 79
e 5 79
e 6 79
e 9 79
e 15 79
e 27 79
e 33 79
e 37 79
e 43 79
e 44 79
e 51 79
e 52 79
e 55 79
e 61 79
e 4 80
e 26 80
e 70 80
e 77 80
e 36 81
e 49 81
e 51 81
e 62 81
e 65 81
e 74 81
e 80 81
e 4 82
e 7 82
e 11 82
e 13 82
e 15 82
e 27 82
e 40 82
e 42 82
e 60 82
e 65 82
e 73 82
e 81 82
e 34 83
e 40 83
e 63 83
e 66 83
e 82 83
e 4 84
e 5 84
e 24 84
e 29 84
e 56 84
e 73 84
e 80 84
e 18 85
e 20 85
e 21 85
e 28 85
e 45 85
e 52 85
e 56 85
e 3 86
e 6 86
e 15 86
e 25 86
e 26 86
e 32 86
e 58 86
e 63 86
e 67 86
e 69 86
e 70 86
e 74 86
e 83 86
e 84 86
e 6 87
e 23 87
e 33 87
e 35 87
e 36 87
e 43 87
e 63 87
e 66 87
e 72 87
e 76 87
e 82 87
e 5 88
e 7 88
e 50 88
e 67 88
e 75 88
e 86 88
e 22 89
e 37 89
e 53 89
e 70 89
e 73 89
e 81 89
e 5 90
e 14 90
e 17 90
e 22 90
e 34 90
e 47 90
e 48 90
e 56 90
e 62 90
e 72 90
e 74 90
e 81 90
